PROBLEM NAME: eil51_n16
KNAPSACK DATA TYPE: multiple strongly correlated
DIMENSION: 16
NUMBER OF ITEMS: 75
CAPACITY OF KNAPSACK: 19984
MIN SPEED: 0.1
MAX SPEED: 1
RENTING RATIO: 38.29
EDGE_WEIGHT_TYPE: CEIL_2D
NODE_COORD_SECTION	(INDEX, X, Y):
1	49	49
2	20	26
3	31	32
4	5	25
5	8	52
6	30	48
7	58	48
8	37	69
9	38	46
10	46	10
11	10	17
12	21	10
13	32	39
14	25	55
15	56	37
16	30	40
ITEMS SECTION	(INDEX, PROFIT, WEIGHT, ASSIGNED NODE NUMBER):
1	1179	979	8
2	1165	965	8
3	1141	941	8
4	1128	928	8
5	1121	921	8
6	1115	915	14
7	1092	792	14
8	1086	786	14
9	1061	861	14
10	1048	848	14
11	1039	839	5
12	1014	714	5
13	1014	814	5
14	1013	813	5
15	990	790	5
16	989	789	6
17	987	787	6
18	973	773	6
19	953	753	6
20	952	752	6
21	948	748	9
22	910	710	9
23	882	682	9
24	852	652	9
25	847	647	9
26	823	623	16
27	816	516	16
28	805	605	16
29	785	585	16
30	775	575	16
31	768	568	13
32	760	560	13
33	759	559	13
34	745	545	13
35	742	542	13
36	737	537	3
37	726	526	3
38	688	488	3
39	677	477	3
40	625	425	3
41	600	300	2
42	593	393	2
43	586	386	2
44	576	376	2
45	574	374	2
46	573	373	4
47	564	264	4
48	564	364	4
49	563	363	4
50	563	363	4
51	555	355	11
52	553	353	11
53	534	234	11
54	520	320	11
55	514	314	11
56	513	313	12
57	492	292	12
58	480	180	12
59	456	156	12
60	445	245	12
61	442	242	10
62	429	229	10
63	425	225	10
64	417	217	10
65	405	205	10
66	355	155	15
67	312	112	15
68	311	111	15
69	311	111	15
70	306	106	15
71	283	83	7
72	270	70	7
73	250	50	7
74	249	49	7
75	226	26	7
